(declare-fun x1 () Real)
(declare-fun x2 () Real)
(declare-fun x3 () Real)
(declare-fun x4 () Real)
(declare-fun x5 () Real)
(declare-fun x6 () Real)
(declare-fun x7 () Real)
(declare-fun x8 () Real)
(declare-fun x9 () Real)
(declare-fun x10 () Real)
(declare-fun x11 () Real)
(declare-fun x12 () Real)
(declare-fun x13 () Real)
(declare-fun x14 () Real)
(declare-fun x15 () Real)
(assert ( and ( or  (<= (+  (* 1 x1) ) 532) ) ( or  (<= (+  (* 1 x1)  (* 1 x2) ) 532)  (<= (+  (* 2 x1)  (* 1 x2) ) 678) ) ( or  (<= (+  (* 1 x1)  (* 1 x2)  (* 1 x3) ) 532)  (<= (+  (* 2 x1)  (* 1 x2)  (* 1 x3) ) 678)  (<= (+  (* 2 x1)  (* 2 x2)  (* 1 x3) ) 830) ) ( or  (<= (+  (* 1 x1)  (* 1 x2)  (* 1 x3)  (* 1 x4) ) 532)  (<= (+  (* 2 x1)  (* 1 x2)  (* 1 x3)  (* 1 x4) ) 678)  (<= (+  (* 2 x1)  (* 2 x2)  (* 1 x3)  (* 1 x4) ) 830)  (<= (+  (* 2 x1)  (* 2 x2)  (* 2 x3)  (* 1 x4) ) 1064)  (<= (+  (* 3 x1)  (* 2 x2)  (* 2 x3)  (* 1 x4) ) 1356)  (<= (+  (* 3 x1)  (* 3 x2)  (* 2 x3)  (* 1 x4) ) 1428) ) ( or  (<= (+  (* 1 x1)  (* 1 x2)  (* 1 x3)  (* 1 x4)  (* 1 x5) ) 532)  (<= (+  (* 2 x1)  (* 1 x2)  (* 1 x3)  (* 1 x4)  (* 1 x5) ) 678)  (<= (+  (* 2 x1)  (* 2 x2)  (* 1 x3)  (* 1 x4)  (* 1 x5) ) 830)  (<= (+  (* 2 x1)  (* 2 x2)  (* 2 x3)  (* 1 x4)  (* 1 x5) ) 1064)  (<= (+  (* 3 x1)  (* 2 x2)  (* 2 x3)  (* 1 x4)  (* 1 x5) ) 1356)  (<= (+  (* 3 x1)  (* 3 x2)  (* 2 x3)  (* 1 x4)  (* 1 x5) ) 1428)  (<= (+  (* 3 x1)  (* 3 x2)  (* 2 x3)  (* 2 x4)  (* 1 x5) ) 1596)  (<= (+  (* 4 x1)  (* 3 x2)  (* 2 x3)  (* 2 x4)  (* 1 x5) ) 1660)  (<= (+  (* 4 x1)  (* 3 x2)  (* 3 x3)  (* 2 x4)  (* 1 x5) ) 2034)  (<= (+  (* 4 x1)  (* 4 x2)  (* 3 x3)  (* 2 x4)  (* 1 x5) ) 2128)  (<= (+  (* 5 x1)  (* 4 x2)  (* 3 x3)  (* 2 x4)  (* 1 x5) ) 2453) ) ( or  (<= (+  (* 1 x1)  (* 1 x2)  (* 1 x3)  (* 1 x4)  (* 1 x5)  (* 1 x6) ) 532)  (<= (+  (* 2 x1)  (* 1 x2)  (* 1 x3)  (* 1 x4)  (* 1 x5)  (* 1 x6) ) 678)  (<= (+  (* 2 x1)  (* 2 x2)  (* 1 x3)  (* 1 x4)  (* 1 x5)  (* 1 x6) ) 830)  (<= (+  (* 2 x1)  (* 2 x2)  (* 2 x3)  (* 1 x4)  (* 1 x5)  (* 1 x6) ) 1064)  (<= (+  (* 3 x1)  (* 2 x2)  (* 2 x3)  (* 1 x4)  (* 1 x5)  (* 1 x6) ) 1356)  (<= (+  (* 3 x1)  (* 3 x2)  (* 2 x3)  (* 1 x4)  (* 1 x5)  (* 1 x6) ) 1428)  (<= (+  (* 3 x1)  (* 3 x2)  (* 2 x3)  (* 2 x4)  (* 1 x5)  (* 1 x6) ) 1596)  (<= (+  (* 4 x1)  (* 3 x2)  (* 2 x3)  (* 2 x4)  (* 1 x5)  (* 1 x6) ) 1660)  (<= (+  (* 4 x1)  (* 3 x2)  (* 3 x3)  (* 2 x4)  (* 1 x5)  (* 1 x6) ) 2034)  (<= (+  (* 4 x1)  (* 4 x2)  (* 3 x3)  (* 2 x4)  (* 1 x5)  (* 1 x6) ) 2128)  (<= (+  (* 5 x1)  (* 4 x2)  (* 3 x3)  (* 2 x4)  (* 1 x5)  (* 1 x6) ) 2453)  (<= (+  (* 5 x1)  (* 4 x2)  (* 3 x3)  (* 2 x4)  (* 2 x5)  (* 1 x6) ) 2490)  (<= (+  (* 5 x1)  (* 4 x2)  (* 4 x3)  (* 2 x4)  (* 2 x5)  (* 1 x6) ) 2660)  (<= (+  (* 6 x1)  (* 4 x2)  (* 4 x3)  (* 2 x4)  (* 2 x5)  (* 1 x6) ) 2712)  (<= (+  (* 6 x1)  (* 5 x2)  (* 4 x3)  (* 2 x4)  (* 2 x5)  (* 1 x6) ) 2757) ) ( or  (<= (+  (* 1 x1)  (* 1 x2)  (* 1 x3)  (* 1 x4)  (* 1 x5)  (* 1 x6)  (* 1 x7) ) 532)  (<= (+  (* 2 x1)  (* 1 x2)  (* 1 x3)  (* 1 x4)  (* 1 x5)  (* 1 x6)  (* 1 x7) ) 678)  (<= (+  (* 2 x1)  (* 2 x2)  (* 1 x3)  (* 1 x4)  (* 1 x5)  (* 1 x6)  (* 1 x7) ) 830)  (<= (+  (* 2 x1)  (* 2 x2)  (* 2 x3)  (* 1 x4)  (* 1 x5)  (* 1 x6)  (* 1 x7) ) 1064)  (<= (+  (* 3 x1)  (* 2 x2)  (* 2 x3)  (* 1 x4)  (* 1 x5)  (* 1 x6)  (* 1 x7) ) 1356)  (<= (+  (* 3 x1)  (* 3 x2)  (* 2 x3)  (* 1 x4)  (* 1 x5)  (* 1 x6)  (* 1 x7) ) 1428)  (<= (+  (* 3 x1)  (* 3 x2)  (* 2 x3)  (* 2 x4)  (* 1 x5)  (* 1 x6)  (* 1 x7) ) 1596)  (<= (+  (* 4 x1)  (* 3 x2)  (* 2 x3)  (* 2 x4)  (* 1 x5)  (* 1 x6)  (* 1 x7) ) 1660)  (<= (+  (* 4 x1)  (* 3 x2)  (* 3 x3)  (* 2 x4)  (* 1 x5)  (* 1 x6)  (* 1 x7) ) 2034)  (<= (+  (* 4 x1)  (* 4 x2)  (* 3 x3)  (* 2 x4)  (* 1 x5)  (* 1 x6)  (* 1 x7) ) 2128)  (<= (+  (* 5 x1)  (* 4 x2)  (* 3 x3)  (* 2 x4)  (* 1 x5)  (* 1 x6)  (* 1 x7) ) 2453)  (<= (+  (* 5 x1)  (* 4 x2)  (* 3 x3)  (* 2 x4)  (* 2 x5)  (* 1 x6)  (* 1 x7) ) 2490)  (<= (+  (* 5 x1)  (* 4 x2)  (* 4 x3)  (* 2 x4)  (* 2 x5)  (* 1 x6)  (* 1 x7) ) 2660)  (<= (+  (* 6 x1)  (* 4 x2)  (* 4 x3)  (* 2 x4)  (* 2 x5)  (* 1 x6)  (* 1 x7) ) 2712)  (<= (+  (* 6 x1)  (* 5 x2)  (* 4 x3)  (* 2 x4)  (* 2 x5)  (* 1 x6)  (* 1 x7) ) 2757)  (<= (+  (* 6 x1)  (* 5 x2)  (* 4 x3)  (* 2 x4)  (* 2 x5)  (* 2 x6)  (* 1 x7) ) 2856)  (<= (+  (* 6 x1)  (* 5 x2)  (* 4 x3)  (* 3 x4)  (* 2 x5)  (* 2 x6)  (* 1 x7) ) 3180) ) ( or  (<= (+  (* 1 x1)  (* 1 x2)  (* 1 x3)  (* 1 x4)  (* 1 x5)  (* 1 x6)  (* 1 x7)  (* 1 x8) ) 532)  (<= (+  (* 2 x1)  (* 1 x2)  (* 1 x3)  (* 1 x4)  (* 1 x5)  (* 1 x6)  (* 1 x7)  (* 1 x8) ) 678)  (<= (+  (* 2 x1)  (* 2 x2)  (* 1 x3)  (* 1 x4)  (* 1 x5)  (* 1 x6)  (* 1 x7)  (* 1 x8) ) 830)  (<= (+  (* 2 x1)  (* 2 x2)  (* 2 x3)  (* 1 x4)  (* 1 x5)  (* 1 x6)  (* 1 x7)  (* 1 x8) ) 1064)  (<= (+  (* 3 x1)  (* 2 x2)  (* 2 x3)  (* 1 x4)  (* 1 x5)  (* 1 x6)  (* 1 x7)  (* 1 x8) ) 1356)  (<= (+  (* 3 x1)  (* 3 x2)  (* 2 x3)  (* 1 x4)  (* 1 x5)  (* 1 x6)  (* 1 x7)  (* 1 x8) ) 1428)  (<= (+  (* 3 x1)  (* 3 x2)  (* 2 x3)  (* 2 x4)  (* 1 x5)  (* 1 x6)  (* 1 x7)  (* 1 x8) ) 1596)  (<= (+  (* 4 x1)  (* 3 x2)  (* 2 x3)  (* 2 x4)  (* 1 x5)  (* 1 x6)  (* 1 x7)  (* 1 x8) ) 1660)  (<= (+  (* 4 x1)  (* 3 x2)  (* 3 x3)  (* 2 x4)  (* 1 x5)  (* 1 x6)  (* 1 x7)  (* 1 x8) ) 2034)  (<= (+  (* 4 x1)  (* 4 x2)  (* 3 x3)  (* 2 x4)  (* 1 x5)  (* 1 x6)  (* 1 x7)  (* 1 x8) ) 2128)  (<= (+  (* 5 x1)  (* 4 x2)  (* 3 x3)  (* 2 x4)  (* 1 x5)  (* 1 x6)  (* 1 x7)  (* 1 x8) ) 2453)  (<= (+  (* 5 x1)  (* 4 x2)  (* 3 x3)  (* 2 x4)  (* 2 x5)  (* 1 x6)  (* 1 x7)  (* 1 x8) ) 2490)  (<= (+  (* 5 x1)  (* 4 x2)  (* 4 x3)  (* 2 x4)  (* 2 x5)  (* 1 x6)  (* 1 x7)  (* 1 x8) ) 2660)  (<= (+  (* 6 x1)  (* 4 x2)  (* 4 x3)  (* 2 x4)  (* 2 x5)  (* 1 x6)  (* 1 x7)  (* 1 x8) ) 2712)  (<= (+  (* 6 x1)  (* 5 x2)  (* 4 x3)  (* 2 x4)  (* 2 x5)  (* 1 x6)  (* 1 x7)  (* 1 x8) ) 2757)  (<= (+  (* 6 x1)  (* 5 x2)  (* 4 x3)  (* 2 x4)  (* 2 x5)  (* 2 x6)  (* 1 x7)  (* 1 x8) ) 2856)  (<= (+  (* 6 x1)  (* 5 x2)  (* 4 x3)  (* 3 x4)  (* 2 x5)  (* 2 x6)  (* 1 x7)  (* 1 x8) ) 3180)  (<= (+  (* 6 x1)  (* 5 x2)  (* 4 x3)  (* 3 x4)  (* 2 x5)  (* 2 x6)  (* 2 x7)  (* 1 x8) ) 3192)  (<= (+  (* 7 x1)  (* 5 x2)  (* 4 x3)  (* 3 x4)  (* 2 x5)  (* 2 x6)  (* 2 x7)  (* 1 x8) ) 3320)  (<= (+  (* 7 x1)  (* 5 x2)  (* 5 x3)  (* 3 x4)  (* 2 x5)  (* 2 x6)  (* 2 x7)  (* 1 x8) ) 3390)  (<= (+  (* 7 x1)  (* 6 x2)  (* 5 x3)  (* 3 x4)  (* 2 x5)  (* 2 x6)  (* 2 x7)  (* 1 x8) ) 3724)  (<= (+  (* 8 x1)  (* 6 x2)  (* 5 x3)  (* 3 x4)  (* 2 x5)  (* 2 x6)  (* 2 x7)  (* 1 x8) ) 4012) ) ( or  (<= (+  (* 1 x1)  (* 1 x2)  (* 1 x3)  (* 1 x4)  (* 1 x5)  (* 1 x6)  (* 1 x7)  (* 1 x8)  (* 1 x9) ) 532)  (<= (+  (* 2 x1)  (* 1 x2)  (* 1 x3)  (* 1 x4)  (* 1 x5)  (* 1 x6)  (* 1 x7)  (* 1 x8)  (* 1 x9) ) 678)  (<= (+  (* 2 x1)  (* 2 x2)  (* 1 x3)  (* 1 x4)  (* 1 x5)  (* 1 x6)  (* 1 x7)  (* 1 x8)  (* 1 x9) ) 830)  (<= (+  (* 2 x1)  (* 2 x2)  (* 2 x3)  (* 1 x4)  (* 1 x5)  (* 1 x6)  (* 1 x7)  (* 1 x8)  (* 1 x9) ) 1064)  (<= (+  (* 3 x1)  (* 2 x2)  (* 2 x3)  (* 1 x4)  (* 1 x5)  (* 1 x6)  (* 1 x7)  (* 1 x8)  (* 1 x9) ) 1356)  (<= (+  (* 3 x1)  (* 3 x2)  (* 2 x3)  (* 1 x4)  (* 1 x5)  (* 1 x6)  (* 1 x7)  (* 1 x8)  (* 1 x9) ) 1428)  (<= (+  (* 3 x1)  (* 3 x2)  (* 2 x3)  (* 2 x4)  (* 1 x5)  (* 1 x6)  (* 1 x7)  (* 1 x8)  (* 1 x9) ) 1596)  (<= (+  (* 4 x1)  (* 3 x2)  (* 2 x3)  (* 2 x4)  (* 1 x5)  (* 1 x6)  (* 1 x7)  (* 1 x8)  (* 1 x9) ) 1660)  (<= (+  (* 4 x1)  (* 3 x2)  (* 3 x3)  (* 2 x4)  (* 1 x5)  (* 1 x6)  (* 1 x7)  (* 1 x8)  (* 1 x9) ) 2034)  (<= (+  (* 4 x1)  (* 4 x2)  (* 3 x3)  (* 2 x4)  (* 1 x5)  (* 1 x6)  (* 1 x7)  (* 1 x8)  (* 1 x9) ) 2128)  (<= (+  (* 5 x1)  (* 4 x2)  (* 3 x3)  (* 2 x4)  (* 1 x5)  (* 1 x6)  (* 1 x7)  (* 1 x8)  (* 1 x9) ) 2453)  (<= (+  (* 5 x1)  (* 4 x2)  (* 3 x3)  (* 2 x4)  (* 2 x5)  (* 1 x6)  (* 1 x7)  (* 1 x8)  (* 1 x9) ) 2490)  (<= (+  (* 5 x1)  (* 4 x2)  (* 4 x3)  (* 2 x4)  (* 2 x5)  (* 1 x6)  (* 1 x7)  (* 1 x8)  (* 1 x9) ) 2660)  (<= (+  (* 6 x1)  (* 4 x2)  (* 4 x3)  (* 2 x4)  (* 2 x5)  (* 1 x6)  (* 1 x7)  (* 1 x8)  (* 1 x9) ) 2712)  (<= (+  (* 6 x1)  (* 5 x2)  (* 4 x3)  (* 2 x4)  (* 2 x5)  (* 1 x6)  (* 1 x7)  (* 1 x8)  (* 1 x9) ) 2757)  (<= (+  (* 6 x1)  (* 5 x2)  (* 4 x3)  (* 2 x4)  (* 2 x5)  (* 2 x6)  (* 1 x7)  (* 1 x8)  (* 1 x9) ) 2856)  (<= (+  (* 6 x1)  (* 5 x2)  (* 4 x3)  (* 3 x4)  (* 2 x5)  (* 2 x6)  (* 1 x7)  (* 1 x8)  (* 1 x9) ) 3180)  (<= (+  (* 6 x1)  (* 5 x2)  (* 4 x3)  (* 3 x4)  (* 2 x5)  (* 2 x6)  (* 2 x7)  (* 1 x8)  (* 1 x9) ) 3192)  (<= (+  (* 7 x1)  (* 5 x2)  (* 4 x3)  (* 3 x4)  (* 2 x5)  (* 2 x6)  (* 2 x7)  (* 1 x8)  (* 1 x9) ) 3320)  (<= (+  (* 7 x1)  (* 5 x2)  (* 5 x3)  (* 3 x4)  (* 2 x5)  (* 2 x6)  (* 2 x7)  (* 1 x8)  (* 1 x9) ) 3390)  (<= (+  (* 7 x1)  (* 6 x2)  (* 5 x3)  (* 3 x4)  (* 2 x5)  (* 2 x6)  (* 2 x7)  (* 1 x8)  (* 1 x9) ) 3724)  (<= (+  (* 8 x1)  (* 6 x2)  (* 5 x3)  (* 3 x4)  (* 2 x5)  (* 2 x6)  (* 2 x7)  (* 1 x8)  (* 1 x9) ) 4012)  (<= (+  (* 8 x1)  (* 6 x2)  (* 5 x3)  (* 3 x4)  (* 2 x5)  (* 2 x6)  (* 2 x7)  (* 2 x8)  (* 1 x9) ) 4068)  (<= (+  (* 8 x1)  (* 7 x2)  (* 5 x3)  (* 3 x4)  (* 2 x5)  (* 2 x6)  (* 2 x7)  (* 2 x8)  (* 1 x9) ) 4083) ) ( or  (<= (+  (* 1 x1)  (* 1 x2)  (* 1 x3)  (* 1 x4)  (* 1 x5)  (* 1 x6)  (* 1 x7)  (* 1 x8)  (* 1 x9)  (* 1 x10) ) 532)  (<= (+  (* 2 x1)  (* 1 x2)  (* 1 x3)  (* 1 x4)  (* 1 x5)  (* 1 x6)  (* 1 x7)  (* 1 x8)  (* 1 x9)  (* 1 x10) ) 678)  (<= (+  (* 2 x1)  (* 2 x2)  (* 1 x3)  (* 1 x4)  (* 1 x5)  (* 1 x6)  (* 1 x7)  (* 1 x8)  (* 1 x9)  (* 1 x10) ) 830)  (<= (+  (* 2 x1)  (* 2 x2)  (* 2 x3)  (* 1 x4)  (* 1 x5)  (* 1 x6)  (* 1 x7)  (* 1 x8)  (* 1 x9)  (* 1 x10) ) 1064)  (<= (+  (* 3 x1)  (* 2 x2)  (* 2 x3)  (* 1 x4)  (* 1 x5)  (* 1 x6)  (* 1 x7)  (* 1 x8)  (* 1 x9)  (* 1 x10) ) 1356)  (<= (+  (* 3 x1)  (* 3 x2)  (* 2 x3)  (* 1 x4)  (* 1 x5)  (* 1 x6)  (* 1 x7)  (* 1 x8)  (* 1 x9)  (* 1 x10) ) 1428)  (<= (+  (* 3 x1)  (* 3 x2)  (* 2 x3)  (* 2 x4)  (* 1 x5)  (* 1 x6)  (* 1 x7)  (* 1 x8)  (* 1 x9)  (* 1 x10) ) 1596)  (<= (+  (* 4 x1)  (* 3 x2)  (* 2 x3)  (* 2 x4)  (* 1 x5)  (* 1 x6)  (* 1 x7)  (* 1 x8)  (* 1 x9)  (* 1 x10) ) 1660)  (<= (+  (* 4 x1)  (* 3 x2)  (* 3 x3)  (* 2 x4)  (* 1 x5)  (* 1 x6)  (* 1 x7)  (* 1 x8)  (* 1 x9)  (* 1 x10) ) 2034)  (<= (+  (* 4 x1)  (* 4 x2)  (* 3 x3)  (* 2 x4)  (* 1 x5)  (* 1 x6)  (* 1 x7)  (* 1 x8)  (* 1 x9)  (* 1 x10) ) 2128)  (<= (+  (* 5 x1)  (* 4 x2)  (* 3 x3)  (* 2 x4)  (* 1 x5)  (* 1 x6)  (* 1 x7)  (* 1 x8)  (* 1 x9)  (* 1 x10) ) 2453)  (<= (+  (* 5 x1)  (* 4 x2)  (* 3 x3)  (* 2 x4)  (* 2 x5)  (* 1 x6)  (* 1 x7)  (* 1 x8)  (* 1 x9)  (* 1 x10) ) 2490)  (<= (+  (* 5 x1)  (* 4 x2)  (* 4 x3)  (* 2 x4)  (* 2 x5)  (* 1 x6)  (* 1 x7)  (* 1 x8)  (* 1 x9)  (* 1 x10) ) 2660)  (<= (+  (* 6 x1)  (* 4 x2)  (* 4 x3)  (* 2 x4)  (* 2 x5)  (* 1 x6)  (* 1 x7)  (* 1 x8)  (* 1 x9)  (* 1 x10) ) 2712)  (<= (+  (* 6 x1)  (* 5 x2)  (* 4 x3)  (* 2 x4)  (* 2 x5)  (* 1 x6)  (* 1 x7)  (* 1 x8)  (* 1 x9)  (* 1 x10) ) 2757)  (<= (+  (* 6 x1)  (* 5 x2)  (* 4 x3)  (* 2 x4)  (* 2 x5)  (* 2 x6)  (* 1 x7)  (* 1 x8)  (* 1 x9)  (* 1 x10) ) 2856)  (<= (+  (* 6 x1)  (* 5 x2)  (* 4 x3)  (* 3 x4)  (* 2 x5)  (* 2 x6)  (* 1 x7)  (* 1 x8)  (* 1 x9)  (* 1 x10) ) 3180)  (<= (+  (* 6 x1)  (* 5 x2)  (* 4 x3)  (* 3 x4)  (* 2 x5)  (* 2 x6)  (* 2 x7)  (* 1 x8)  (* 1 x9)  (* 1 x10) ) 3192)  (<= (+  (* 7 x1)  (* 5 x2)  (* 4 x3)  (* 3 x4)  (* 2 x5)  (* 2 x6)  (* 2 x7)  (* 1 x8)  (* 1 x9)  (* 1 x10) ) 3320)  (<= (+  (* 7 x1)  (* 5 x2)  (* 5 x3)  (* 3 x4)  (* 2 x5)  (* 2 x6)  (* 2 x7)  (* 1 x8)  (* 1 x9)  (* 1 x10) ) 3390)  (<= (+  (* 7 x1)  (* 6 x2)  (* 5 x3)  (* 3 x4)  (* 2 x5)  (* 2 x6)  (* 2 x7)  (* 1 x8)  (* 1 x9)  (* 1 x10) ) 3724)  (<= (+  (* 8 x1)  (* 6 x2)  (* 5 x3)  (* 3 x4)  (* 2 x5)  (* 2 x6)  (* 2 x7)  (* 1 x8)  (* 1 x9)  (* 1 x10) ) 4012)  (<= (+  (* 8 x1)  (* 6 x2)  (* 5 x3)  (* 3 x4)  (* 2 x5)  (* 2 x6)  (* 2 x7)  (* 2 x8)  (* 1 x9)  (* 1 x10) ) 4068)  (<= (+  (* 8 x1)  (* 7 x2)  (* 5 x3)  (* 3 x4)  (* 2 x5)  (* 2 x6)  (* 2 x7)  (* 2 x8)  (* 1 x9)  (* 1 x10) ) 4083)  (<= (+  (* 8 x1)  (* 7 x2)  (* 5 x3)  (* 3 x4)  (* 2 x5)  (* 2 x6)  (* 2 x7)  (* 2 x8)  (* 2 x9)  (* 1 x10) ) 4150)  (<= (+  (* 8 x1)  (* 7 x2)  (* 6 x3)  (* 3 x4)  (* 2 x5)  (* 2 x6)  (* 2 x7)  (* 2 x8)  (* 2 x9)  (* 1 x10) ) 4256)  (<= (+  (* 9 x1)  (* 7 x2)  (* 6 x3)  (* 3 x4)  (* 2 x5)  (* 2 x6)  (* 2 x7)  (* 2 x8)  (* 2 x9)  (* 1 x10) ) 4284)  (<= (+  (* 9 x1)  (* 7 x2)  (* 6 x3)  (* 4 x4)  (* 2 x5)  (* 2 x6)  (* 2 x7)  (* 2 x8)  (* 2 x9)  (* 1 x10) ) 4534) ) ( or  (<= (+  (* 1 x1)  (* 1 x2)  (* 1 x3)  (* 1 x4)  (* 1 x5)  (* 1 x6)  (* 1 x7)  (* 1 x8)  (* 1 x9)  (* 1 x10)  (* 1 x11) ) 532)  (<= (+  (* 2 x1)  (* 1 x2)  (* 1 x3)  (* 1 x4)  (* 1 x5)  (* 1 x6)  (* 1 x7)  (* 1 x8)  (* 1 x9)  (* 1 x10)  (* 1 x11) ) 678)  (<= (+  (* 2 x1)  (* 2 x2)  (* 1 x3)  (* 1 x4)  (* 1 x5)  (* 1 x6)  (* 1 x7)  (* 1 x8)  (* 1 x9)  (* 1 x10)  (* 1 x11) ) 830)  (<= (+  (* 2 x1)  (* 2 x2)  (* 2 x3)  (* 1 x4)  (* 1 x5)  (* 1 x6)  (* 1 x7)  (* 1 x8)  (* 1 x9)  (* 1 x10)  (* 1 x11) ) 1064)  (<= (+  (* 3 x1)  (* 2 x2)  (* 2 x3)  (* 1 x4)  (* 1 x5)  (* 1 x6)  (* 1 x7)  (* 1 x8)  (* 1 x9)  (* 1 x10)  (* 1 x11) ) 1356)  (<= (+  (* 3 x1)  (* 3 x2)  (* 2 x3)  (* 1 x4)  (* 1 x5)  (* 1 x6)  (* 1 x7)  (* 1 x8)  (* 1 x9)  (* 1 x10)  (* 1 x11) ) 1428)  (<= (+  (* 3 x1)  (* 3 x2)  (* 2 x3)  (* 2 x4)  (* 1 x5)  (* 1 x6)  (* 1 x7)  (* 1 x8)  (* 1 x9)  (* 1 x10)  (* 1 x11) ) 1596)  (<= (+  (* 4 x1)  (* 3 x2)  (* 2 x3)  (* 2 x4)  (* 1 x5)  (* 1 x6)  (* 1 x7)  (* 1 x8)  (* 1 x9)  (* 1 x10)  (* 1 x11) ) 1660)  (<= (+  (* 4 x1)  (* 3 x2)  (* 3 x3)  (* 2 x4)  (* 1 x5)  (* 1 x6)  (* 1 x7)  (* 1 x8)  (* 1 x9)  (* 1 x10)  (* 1 x11) ) 2034)  (<= (+  (* 4 x1)  (* 4 x2)  (* 3 x3)  (* 2 x4)  (* 1 x5)  (* 1 x6)  (* 1 x7)  (* 1 x8)  (* 1 x9)  (* 1 x10)  (* 1 x11) ) 2128)  (<= (+  (* 5 x1)  (* 4 x2)  (* 3 x3)  (* 2 x4)  (* 1 x5)  (* 1 x6)  (* 1 x7)  (* 1 x8)  (* 1 x9)  (* 1 x10)  (* 1 x11) ) 2453)  (<= (+  (* 5 x1)  (* 4 x2)  (* 3 x3)  (* 2 x4)  (* 2 x5)  (* 1 x6)  (* 1 x7)  (* 1 x8)  (* 1 x9)  (* 1 x10)  (* 1 x11) ) 2490)  (<= (+  (* 5 x1)  (* 4 x2)  (* 4 x3)  (* 2 x4)  (* 2 x5)  (* 1 x6)  (* 1 x7)  (* 1 x8)  (* 1 x9)  (* 1 x10)  (* 1 x11) ) 2660)  (<= (+  (* 6 x1)  (* 4 x2)  (* 4 x3)  (* 2 x4)  (* 2 x5)  (* 1 x6)  (* 1 x7)  (* 1 x8)  (* 1 x9)  (* 1 x10)  (* 1 x11) ) 2712)  (<= (+  (* 6 x1)  (* 5 x2)  (* 4 x3)  (* 2 x4)  (* 2 x5)  (* 1 x6)  (* 1 x7)  (* 1 x8)  (* 1 x9)  (* 1 x10)  (* 1 x11) ) 2757)  (<= (+  (* 6 x1)  (* 5 x2)  (* 4 x3)  (* 2 x4)  (* 2 x5)  (* 2 x6)  (* 1 x7)  (* 1 x8)  (* 1 x9)  (* 1 x10)  (* 1 x11) ) 2856)  (<= (+  (* 6 x1)  (* 5 x2)  (* 4 x3)  (* 3 x4)  (* 2 x5)  (* 2 x6)  (* 1 x7)  (* 1 x8)  (* 1 x9)  (* 1 x10)  (* 1 x11) ) 3180)  (<= (+  (* 6 x1)  (* 5 x2)  (* 4 x3)  (* 3 x4)  (* 2 x5)  (* 2 x6)  (* 2 x7)  (* 1 x8)  (* 1 x9)  (* 1 x10)  (* 1 x11) ) 3192)  (<= (+  (* 7 x1)  (* 5 x2)  (* 4 x3)  (* 3 x4)  (* 2 x5)  (* 2 x6)  (* 2 x7)  (* 1 x8)  (* 1 x9)  (* 1 x10)  (* 1 x11) ) 3320)  (<= (+  (* 7 x1)  (* 5 x2)  (* 5 x3)  (* 3 x4)  (* 2 x5)  (* 2 x6)  (* 2 x7)  (* 1 x8)  (* 1 x9)  (* 1 x10)  (* 1 x11) ) 3390)  (<= (+  (* 7 x1)  (* 6 x2)  (* 5 x3)  (* 3 x4)  (* 2 x5)  (* 2 x6)  (* 2 x7)  (* 1 x8)  (* 1 x9)  (* 1 x10)  (* 1 x11) ) 3724)  (<= (+  (* 8 x1)  (* 6 x2)  (* 5 x3)  (* 3 x4)  (* 2 x5)  (* 2 x6)  (* 2 x7)  (* 1 x8)  (* 1 x9)  (* 1 x10)  (* 1 x11) ) 4012)  (<= (+  (* 8 x1)  (* 6 x2)  (* 5 x3)  (* 3 x4)  (* 2 x5)  (* 2 x6)  (* 2 x7)  (* 2 x8)  (* 1 x9)  (* 1 x10)  (* 1 x11) ) 4068)  (<= (+  (* 8 x1)  (* 7 x2)  (* 5 x3)  (* 3 x4)  (* 2 x5)  (* 2 x6)  (* 2 x7)  (* 2 x8)  (* 1 x9)  (* 1 x10)  (* 1 x11) ) 4083)  (<= (+  (* 8 x1)  (* 7 x2)  (* 5 x3)  (* 3 x4)  (* 2 x5)  (* 2 x6)  (* 2 x7)  (* 2 x8)  (* 2 x9)  (* 1 x10)  (* 1 x11) ) 4150)  (<= (+  (* 8 x1)  (* 7 x2)  (* 6 x3)  (* 3 x4)  (* 2 x5)  (* 2 x6)  (* 2 x7)  (* 2 x8)  (* 2 x9)  (* 1 x10)  (* 1 x11) ) 4256)  (<= (+  (* 9 x1)  (* 7 x2)  (* 6 x3)  (* 3 x4)  (* 2 x5)  (* 2 x6)  (* 2 x7)  (* 2 x8)  (* 2 x9)  (* 1 x10)  (* 1 x11) ) 4284)  (<= (+  (* 9 x1)  (* 7 x2)  (* 6 x3)  (* 4 x4)  (* 2 x5)  (* 2 x6)  (* 2 x7)  (* 2 x8)  (* 2 x9)  (* 1 x10)  (* 1 x11) ) 4534)  (<= (+  (* 9 x1)  (* 7 x2)  (* 6 x3)  (* 4 x4)  (* 2 x5)  (* 2 x6)  (* 2 x7)  (* 2 x8)  (* 2 x9)  (* 2 x10)  (* 1 x11) ) 4572) ) ( or  (<= (+  (* 1 x1)  (* 1 x2)  (* 1 x3)  (* 1 x4)  (* 1 x5)  (* 1 x6)  (* 1 x7)  (* 1 x8)  (* 1 x9)  (* 1 x10)  (* 1 x11)  (* 1 x12) ) 532)  (<= (+  (* 2 x1)  (* 1 x2)  (* 1 x3)  (* 1 x4)  (* 1 x5)  (* 1 x6)  (* 1 x7)  (* 1 x8)  (* 1 x9)  (* 1 x10)  (* 1 x11)  (* 1 x12) ) 678)  (<= (+  (* 2 x1)  (* 2 x2)  (* 1 x3)  (* 1 x4)  (* 1 x5)  (* 1 x6)  (* 1 x7)  (* 1 x8)  (* 1 x9)  (* 1 x10)  (* 1 x11)  (* 1 x12) ) 830)  (<= (+  (* 2 x1)  (* 2 x2)  (* 2 x3)  (* 1 x4)  (* 1 x5)  (* 1 x6)  (* 1 x7)  (* 1 x8)  (* 1 x9)  (* 1 x10)  (* 1 x11)  (* 1 x12) ) 1064)  (<= (+  (* 3 x1)  (* 2 x2)  (* 2 x3)  (* 1 x4)  (* 1 x5)  (* 1 x6)  (* 1 x7)  (* 1 x8)  (* 1 x9)  (* 1 x10)  (* 1 x11)  (* 1 x12) ) 1356)  (<= (+  (* 3 x1)  (* 3 x2)  (* 2 x3)  (* 1 x4)  (* 1 x5)  (* 1 x6)  (* 1 x7)  (* 1 x8)  (* 1 x9)  (* 1 x10)  (* 1 x11)  (* 1 x12) ) 1428)  (<= (+  (* 3 x1)  (* 3 x2)  (* 2 x3)  (* 2 x4)  (* 1 x5)  (* 1 x6)  (* 1 x7)  (* 1 x8)  (* 1 x9)  (* 1 x10)  (* 1 x11)  (* 1 x12) ) 1596)  (<= (+  (* 4 x1)  (* 3 x2)  (* 2 x3)  (* 2 x4)  (* 1 x5)  (* 1 x6)  (* 1 x7)  (* 1 x8)  (* 1 x9)  (* 1 x10)  (* 1 x11)  (* 1 x12) ) 1660)  (<= (+  (* 4 x1)  (* 3 x2)  (* 3 x3)  (* 2 x4)  (* 1 x5)  (* 1 x6)  (* 1 x7)  (* 1 x8)  (* 1 x9)  (* 1 x10)  (* 1 x11)  (* 1 x12) ) 2034)  (<= (+  (* 4 x1)  (* 4 x2)  (* 3 x3)  (* 2 x4)  (* 1 x5)  (* 1 x6)  (* 1 x7)  (* 1 x8)  (* 1 x9)  (* 1 x10)  (* 1 x11)  (* 1 x12) ) 2128)  (<= (+  (* 5 x1)  (* 4 x2)  (* 3 x3)  (* 2 x4)  (* 1 x5)  (* 1 x6)  (* 1 x7)  (* 1 x8)  (* 1 x9)  (* 1 x10)  (* 1 x11)  (* 1 x12) ) 2453)  (<= (+  (* 5 x1)  (* 4 x2)  (* 3 x3)  (* 2 x4)  (* 2 x5)  (* 1 x6)  (* 1 x7)  (* 1 x8)  (* 1 x9)  (* 1 x10)  (* 1 x11)  (* 1 x12) ) 2490)  (<= (+  (* 5 x1)  (* 4 x2)  (* 4 x3)  (* 2 x4)  (* 2 x5)  (* 1 x6)  (* 1 x7)  (* 1 x8)  (* 1 x9)  (* 1 x10)  (* 1 x11)  (* 1 x12) ) 2660)  (<= (+  (* 6 x1)  (* 4 x2)  (* 4 x3)  (* 2 x4)  (* 2 x5)  (* 1 x6)  (* 1 x7)  (* 1 x8)  (* 1 x9)  (* 1 x10)  (* 1 x11)  (* 1 x12) ) 2712)  (<= (+  (* 6 x1)  (* 5 x2)  (* 4 x3)  (* 2 x4)  (* 2 x5)  (* 1 x6)  (* 1 x7)  (* 1 x8)  (* 1 x9)  (* 1 x10)  (* 1 x11)  (* 1 x12) ) 2757)  (<= (+  (* 6 x1)  (* 5 x2)  (* 4 x3)  (* 2 x4)  (* 2 x5)  (* 2 x6)  (* 1 x7)  (* 1 x8)  (* 1 x9)  (* 1 x10)  (* 1 x11)  (* 1 x12) ) 2856)  (<= (+  (* 6 x1)  (* 5 x2)  (* 4 x3)  (* 3 x4)  (* 2 x5)  (* 2 x6)  (* 1 x7)  (* 1 x8)  (* 1 x9)  (* 1 x10)  (* 1 x11)  (* 1 x12) ) 3180)  (<= (+  (* 6 x1)  (* 5 x2)  (* 4 x3)  (* 3 x4)  (* 2 x5)  (* 2 x6)  (* 2 x7)  (* 1 x8)  (* 1 x9)  (* 1 x10)  (* 1 x11)  (* 1 x12) ) 3192)  (<= (+  (* 7 x1)  (* 5 x2)  (* 4 x3)  (* 3 x4)  (* 2 x5)  (* 2 x6)  (* 2 x7)  (* 1 x8)  (* 1 x9)  (* 1 x10)  (* 1 x11)  (* 1 x12) ) 3320)  (<= (+  (* 7 x1)  (* 5 x2)  (* 5 x3)  (* 3 x4)  (* 2 x5)  (* 2 x6)  (* 2 x7)  (* 1 x8)  (* 1 x9)  (* 1 x10)  (* 1 x11)  (* 1 x12) ) 3390)  (<= (+  (* 7 x1)  (* 6 x2)  (* 5 x3)  (* 3 x4)  (* 2 x5)  (* 2 x6)  (* 2 x7)  (* 1 x8)  (* 1 x9)  (* 1 x10)  (* 1 x11)  (* 1 x12) ) 3724)  (<= (+  (* 8 x1)  (* 6 x2)  (* 5 x3)  (* 3 x4)  (* 2 x5)  (* 2 x6)  (* 2 x7)  (* 1 x8)  (* 1 x9)  (* 1 x10)  (* 1 x11)  (* 1 x12) ) 4012)  (<= (+  (* 8 x1)  (* 6 x2)  (* 5 x3)  (* 3 x4)  (* 2 x5)  (* 2 x6)  (* 2 x7)  (* 2 x8)  (* 1 x9)  (* 1 x10)  (* 1 x11)  (* 1 x12) ) 4068)  (<= (+  (* 8 x1)  (* 7 x2)  (* 5 x3)  (* 3 x4)  (* 2 x5)  (* 2 x6)  (* 2 x7)  (* 2 x8)  (* 1 x9)  (* 1 x10)  (* 1 x11)  (* 1 x12) ) 4083)  (<= (+  (* 8 x1)  (* 7 x2)  (* 5 x3)  (* 3 x4)  (* 2 x5)  (* 2 x6)  (* 2 x7)  (* 2 x8)  (* 2 x9)  (* 1 x10)  (* 1 x11)  (* 1 x12) ) 4150)  (<= (+  (* 8 x1)  (* 7 x2)  (* 6 x3)  (* 3 x4)  (* 2 x5)  (* 2 x6)  (* 2 x7)  (* 2 x8)  (* 2 x9)  (* 1 x10)  (* 1 x11)  (* 1 x12) ) 4256)  (<= (+  (* 9 x1)  (* 7 x2)  (* 6 x3)  (* 3 x4)  (* 2 x5)  (* 2 x6)  (* 2 x7)  (* 2 x8)  (* 2 x9)  (* 1 x10)  (* 1 x11)  (* 1 x12) ) 4284)  (<= (+  (* 9 x1)  (* 7 x2)  (* 6 x3)  (* 4 x4)  (* 2 x5)  (* 2 x6)  (* 2 x7)  (* 2 x8)  (* 2 x9)  (* 1 x10)  (* 1 x11)  (* 1 x12) ) 4534)  (<= (+  (* 9 x1)  (* 7 x2)  (* 6 x3)  (* 4 x4)  (* 2 x5)  (* 2 x6)  (* 2 x7)  (* 2 x8)  (* 2 x9)  (* 2 x10)  (* 1 x11)  (* 1 x12) ) 4572)  (<= (+  (* 9 x1)  (* 7 x2)  (* 6 x3)  (* 4 x4)  (* 2 x5)  (* 2 x6)  (* 2 x7)  (* 2 x8)  (* 2 x9)  (* 2 x10)  (* 2 x11)  (* 1 x12) ) 4746)  (<= (+  (* 9 x1)  (* 8 x2)  (* 6 x3)  (* 4 x4)  (* 2 x5)  (* 2 x6)  (* 2 x7)  (* 2 x8)  (* 2 x9)  (* 2 x10)  (* 2 x11)  (* 1 x12) ) 4788) ) ( or  (<= (+  (* 1 x1)  (* 1 x2)  (* 1 x3)  (* 1 x4)  (* 1 x5)  (* 1 x6)  (* 1 x7)  (* 1 x8)  (* 1 x9)  (* 1 x10)  (* 1 x11)  (* 1 x12)  (* 1 x13) ) 532)  (<= (+  (* 2 x1)  (* 1 x2)  (* 1 x3)  (* 1 x4)  (* 1 x5)  (* 1 x6)  (* 1 x7)  (* 1 x8)  (* 1 x9)  (* 1 x10)  (* 1 x11)  (* 1 x12)  (* 1 x13) ) 678)  (<= (+  (* 2 x1)  (* 2 x2)  (* 1 x3)  (* 1 x4)  (* 1 x5)  (* 1 x6)  (* 1 x7)  (* 1 x8)  (* 1 x9)  (* 1 x10)  (* 1 x11)  (* 1 x12)  (* 1 x13) ) 830)  (<= (+  (* 2 x1)  (* 2 x2)  (* 2 x3)  (* 1 x4)  (* 1 x5)  (* 1 x6)  (* 1 x7)  (* 1 x8)  (* 1 x9)  (* 1 x10)  (* 1 x11)  (* 1 x12)  (* 1 x13) ) 1064)  (<= (+  (* 3 x1)  (* 2 x2)  (* 2 x3)  (* 1 x4)  (* 1 x5)  (* 1 x6)  (* 1 x7)  (* 1 x8)  (* 1 x9)  (* 1 x10)  (* 1 x11)  (* 1 x12)  (* 1 x13) ) 1356)  (<= (+  (* 3 x1)  (* 3 x2)  (* 2 x3)  (* 1 x4)  (* 1 x5)  (* 1 x6)  (* 1 x7)  (* 1 x8)  (* 1 x9)  (* 1 x10)  (* 1 x11)  (* 1 x12)  (* 1 x13) ) 1428)  (<= (+  (* 3 x1)  (* 3 x2)  (* 2 x3)  (* 2 x4)  (* 1 x5)  (* 1 x6)  (* 1 x7)  (* 1 x8)  (* 1 x9)  (* 1 x10)  (* 1 x11)  (* 1 x12)  (* 1 x13) ) 1596)  (<= (+  (* 4 x1)  (* 3 x2)  (* 2 x3)  (* 2 x4)  (* 1 x5)  (* 1 x6)  (* 1 x7)  (* 1 x8)  (* 1 x9)  (* 1 x10)  (* 1 x11)  (* 1 x12)  (* 1 x13) ) 1660)  (<= (+  (* 4 x1)  (* 3 x2)  (* 3 x3)  (* 2 x4)  (* 1 x5)  (* 1 x6)  (* 1 x7)  (* 1 x8)  (* 1 x9)  (* 1 x10)  (* 1 x11)  (* 1 x12)  (* 1 x13) ) 2034)  (<= (+  (* 4 x1)  (* 4 x2)  (* 3 x3)  (* 2 x4)  (* 1 x5)  (* 1 x6)  (* 1 x7)  (* 1 x8)  (* 1 x9)  (* 1 x10)  (* 1 x11)  (* 1 x12)  (* 1 x13) ) 2128)  (<= (+  (* 5 x1)  (* 4 x2)  (* 3 x3)  (* 2 x4)  (* 1 x5)  (* 1 x6)  (* 1 x7)  (* 1 x8)  (* 1 x9)  (* 1 x10)  (* 1 x11)  (* 1 x12)  (* 1 x13) ) 2453)  (<= (+  (* 5 x1)  (* 4 x2)  (* 3 x3)  (* 2 x4)  (* 2 x5)  (* 1 x6)  (* 1 x7)  (* 1 x8)  (* 1 x9)  (* 1 x10)  (* 1 x11)  (* 1 x12)  (* 1 x13) ) 2490)  (<= (+  (* 5 x1)  (* 4 x2)  (* 4 x3)  (* 2 x4)  (* 2 x5)  (* 1 x6)  (* 1 x7)  (* 1 x8)  (* 1 x9)  (* 1 x10)  (* 1 x11)  (* 1 x12)  (* 1 x13) ) 2660)  (<= (+  (* 6 x1)  (* 4 x2)  (* 4 x3)  (* 2 x4)  (* 2 x5)  (* 1 x6)  (* 1 x7)  (* 1 x8)  (* 1 x9)  (* 1 x10)  (* 1 x11)  (* 1 x12)  (* 1 x13) ) 2712)  (<= (+  (* 6 x1)  (* 5 x2)  (* 4 x3)  (* 2 x4)  (* 2 x5)  (* 1 x6)  (* 1 x7)  (* 1 x8)  (* 1 x9)  (* 1 x10)  (* 1 x11)  (* 1 x12)  (* 1 x13) ) 2757)  (<= (+  (* 6 x1)  (* 5 x2)  (* 4 x3)  (* 2 x4)  (* 2 x5)  (* 2 x6)  (* 1 x7)  (* 1 x8)  (* 1 x9)  (* 1 x10)  (* 1 x11)  (* 1 x12)  (* 1 x13) ) 2856)  (<= (+  (* 6 x1)  (* 5 x2)  (* 4 x3)  (* 3 x4)  (* 2 x5)  (* 2 x6)  (* 1 x7)  (* 1 x8)  (* 1 x9)  (* 1 x10)  (* 1 x11)  (* 1 x12)  (* 1 x13) ) 3180)  (<= (+  (* 6 x1)  (* 5 x2)  (* 4 x3)  (* 3 x4)  (* 2 x5)  (* 2 x6)  (* 2 x7)  (* 1 x8)  (* 1 x9)  (* 1 x10)  (* 1 x11)  (* 1 x12)  (* 1 x13) ) 3192)  (<= (+  (* 7 x1)  (* 5 x2)  (* 4 x3)  (* 3 x4)  (* 2 x5)  (* 2 x6)  (* 2 x7)  (* 1 x8)  (* 1 x9)  (* 1 x10)  (* 1 x11)  (* 1 x12)  (* 1 x13) ) 3320)  (<= (+  (* 7 x1)  (* 5 x2)  (* 5 x3)  (* 3 x4)  (* 2 x5)  (* 2 x6)  (* 2 x7)  (* 1 x8)  (* 1 x9)  (* 1 x10)  (* 1 x11)  (* 1 x12)  (* 1 x13) ) 3390)  (<= (+  (* 7 x1)  (* 6 x2)  (* 5 x3)  (* 3 x4)  (* 2 x5)  (* 2 x6)  (* 2 x7)  (* 1 x8)  (* 1 x9)  (* 1 x10)  (* 1 x11)  (* 1 x12)  (* 1 x13) ) 3724)  (<= (+  (* 8 x1)  (* 6 x2)  (* 5 x3)  (* 3 x4)  (* 2 x5)  (* 2 x6)  (* 2 x7)  (* 1 x8)  (* 1 x9)  (* 1 x10)  (* 1 x11)  (* 1 x12)  (* 1 x13) ) 4012)  (<= (+  (* 8 x1)  (* 6 x2)  (* 5 x3)  (* 3 x4)  (* 2 x5)  (* 2 x6)  (* 2 x7)  (* 2 x8)  (* 1 x9)  (* 1 x10)  (* 1 x11)  (* 1 x12)  (* 1 x13) ) 4068)  (<= (+  (* 8 x1)  (* 7 x2)  (* 5 x3)  (* 3 x4)  (* 2 x5)  (* 2 x6)  (* 2 x7)  (* 2 x8)  (* 1 x9)  (* 1 x10)  (* 1 x11)  (* 1 x12)  (* 1 x13) ) 4083)  (<= (+  (* 8 x1)  (* 7 x2)  (* 5 x3)  (* 3 x4)  (* 2 x5)  (* 2 x6)  (* 2 x7)  (* 2 x8)  (* 2 x9)  (* 1 x10)  (* 1 x11)  (* 1 x12)  (* 1 x13) ) 4150)  (<= (+  (* 8 x1)  (* 7 x2)  (* 6 x3)  (* 3 x4)  (* 2 x5)  (* 2 x6)  (* 2 x7)  (* 2 x8)  (* 2 x9)  (* 1 x10)  (* 1 x11)  (* 1 x12)  (* 1 x13) ) 4256)  (<= (+  (* 9 x1)  (* 7 x2)  (* 6 x3)  (* 3 x4)  (* 2 x5)  (* 2 x6)  (* 2 x7)  (* 2 x8)  (* 2 x9)  (* 1 x10)  (* 1 x11)  (* 1 x12)  (* 1 x13) ) 4284)  (<= (+  (* 9 x1)  (* 7 x2)  (* 6 x3)  (* 4 x4)  (* 2 x5)  (* 2 x6)  (* 2 x7)  (* 2 x8)  (* 2 x9)  (* 1 x10)  (* 1 x11)  (* 1 x12)  (* 1 x13) ) 4534)  (<= (+  (* 9 x1)  (* 7 x2)  (* 6 x3)  (* 4 x4)  (* 2 x5)  (* 2 x6)  (* 2 x7)  (* 2 x8)  (* 2 x9)  (* 2 x10)  (* 1 x11)  (* 1 x12)  (* 1 x13) ) 4572)  (<= (+  (* 9 x1)  (* 7 x2)  (* 6 x3)  (* 4 x4)  (* 2 x5)  (* 2 x6)  (* 2 x7)  (* 2 x8)  (* 2 x9)  (* 2 x10)  (* 2 x11)  (* 1 x12)  (* 1 x13) ) 4746)  (<= (+  (* 9 x1)  (* 8 x2)  (* 6 x3)  (* 4 x4)  (* 2 x5)  (* 2 x6)  (* 2 x7)  (* 2 x8)  (* 2 x9)  (* 2 x10)  (* 2 x11)  (* 1 x12)  (* 1 x13) ) 4788)  (<= (+  (* 10 x1)  (* 8 x2)  (* 6 x3)  (* 4 x4)  (* 2 x5)  (* 2 x6)  (* 2 x7)  (* 2 x8)  (* 2 x9)  (* 2 x10)  (* 2 x11)  (* 2 x12)  (* 1 x13) ) 4790) ) ( or  (<= (+  (* 1 x1)  (* 1 x2)  (* 1 x3)  (* 1 x4)  (* 1 x5)  (* 1 x6)  (* 1 x7)  (* 1 x8)  (* 1 x9)  (* 1 x10)  (* 1 x11)  (* 1 x12)  (* 1 x13)  (* 1 x14) ) 532)  (<= (+  (* 2 x1)  (* 1 x2)  (* 1 x3)  (* 1 x4)  (* 1 x5)  (* 1 x6)  (* 1 x7)  (* 1 x8)  (* 1 x9)  (* 1 x10)  (* 1 x11)  (* 1 x12)  (* 1 x13)  (* 1 x14) ) 678)  (<= (+  (* 2 x1)  (* 2 x2)  (* 1 x3)  (* 1 x4)  (* 1 x5)  (* 1 x6)  (* 1 x7)  (* 1 x8)  (* 1 x9)  (* 1 x10)  (* 1 x11)  (* 1 x12)  (* 1 x13)  (* 1 x14) ) 830)  (<= (+  (* 2 x1)  (* 2 x2)  (* 2 x3)  (* 1 x4)  (* 1 x5)  (* 1 x6)  (* 1 x7)  (* 1 x8)  (* 1 x9)  (* 1 x10)  (* 1 x11)  (* 1 x12)  (* 1 x13)  (* 1 x14) ) 1064)  (<= (+  (* 3 x1)  (* 2 x2)  (* 2 x3)  (* 1 x4)  (* 1 x5)  (* 1 x6)  (* 1 x7)  (* 1 x8)  (* 1 x9)  (* 1 x10)  (* 1 x11)  (* 1 x12)  (* 1 x13)  (* 1 x14) ) 1356)  (<= (+  (* 3 x1)  (* 3 x2)  (* 2 x3)  (* 1 x4)  (* 1 x5)  (* 1 x6)  (* 1 x7)  (* 1 x8)  (* 1 x9)  (* 1 x10)  (* 1 x11)  (* 1 x12)  (* 1 x13)  (* 1 x14) ) 1428)  (<= (+  (* 3 x1)  (* 3 x2)  (* 2 x3)  (* 2 x4)  (* 1 x5)  (* 1 x6)  (* 1 x7)  (* 1 x8)  (* 1 x9)  (* 1 x10)  (* 1 x11)  (* 1 x12)  (* 1 x13)  (* 1 x14) ) 1596)  (<= (+  (* 4 x1)  (* 3 x2)  (* 2 x3)  (* 2 x4)  (* 1 x5)  (* 1 x6)  (* 1 x7)  (* 1 x8)  (* 1 x9)  (* 1 x10)  (* 1 x11)  (* 1 x12)  (* 1 x13)  (* 1 x14) ) 1660)  (<= (+  (* 4 x1)  (* 3 x2)  (* 3 x3)  (* 2 x4)  (* 1 x5)  (* 1 x6)  (* 1 x7)  (* 1 x8)  (* 1 x9)  (* 1 x10)  (* 1 x11)  (* 1 x12)  (* 1 x13)  (* 1 x14) ) 2034)  (<= (+  (* 4 x1)  (* 4 x2)  (* 3 x3)  (* 2 x4)  (* 1 x5)  (* 1 x6)  (* 1 x7)  (* 1 x8)  (* 1 x9)  (* 1 x10)  (* 1 x11)  (* 1 x12)  (* 1 x13)  (* 1 x14) ) 2128)  (<= (+  (* 5 x1)  (* 4 x2)  (* 3 x3)  (* 2 x4)  (* 1 x5)  (* 1 x6)  (* 1 x7)  (* 1 x8)  (* 1 x9)  (* 1 x10)  (* 1 x11)  (* 1 x12)  (* 1 x13)  (* 1 x14) ) 2453)  (<= (+  (* 5 x1)  (* 4 x2)  (* 3 x3)  (* 2 x4)  (* 2 x5)  (* 1 x6)  (* 1 x7)  (* 1 x8)  (* 1 x9)  (* 1 x10)  (* 1 x11)  (* 1 x12)  (* 1 x13)  (* 1 x14) ) 2490)  (<= (+  (* 5 x1)  (* 4 x2)  (* 4 x3)  (* 2 x4)  (* 2 x5)  (* 1 x6)  (* 1 x7)  (* 1 x8)  (* 1 x9)  (* 1 x10)  (* 1 x11)  (* 1 x12)  (* 1 x13)  (* 1 x14) ) 2660)  (<= (+  (* 6 x1)  (* 4 x2)  (* 4 x3)  (* 2 x4)  (* 2 x5)  (* 1 x6)  (* 1 x7)  (* 1 x8)  (* 1 x9)  (* 1 x10)  (* 1 x11)  (* 1 x12)  (* 1 x13)  (* 1 x14) ) 2712)  (<= (+  (* 6 x1)  (* 5 x2)  (* 4 x3)  (* 2 x4)  (* 2 x5)  (* 1 x6)  (* 1 x7)  (* 1 x8)  (* 1 x9)  (* 1 x10)  (* 1 x11)  (* 1 x12)  (* 1 x13)  (* 1 x14) ) 2757)  (<= (+  (* 6 x1)  (* 5 x2)  (* 4 x3)  (* 2 x4)  (* 2 x5)  (* 2 x6)  (* 1 x7)  (* 1 x8)  (* 1 x9)  (* 1 x10)  (* 1 x11)  (* 1 x12)  (* 1 x13)  (* 1 x14) ) 2856)  (<= (+  (* 6 x1)  (* 5 x2)  (* 4 x3)  (* 3 x4)  (* 2 x5)  (* 2 x6)  (* 1 x7)  (* 1 x8)  (* 1 x9)  (* 1 x10)  (* 1 x11)  (* 1 x12)  (* 1 x13)  (* 1 x14) ) 3180)  (<= (+  (* 6 x1)  (* 5 x2)  (* 4 x3)  (* 3 x4)  (* 2 x5)  (* 2 x6)  (* 2 x7)  (* 1 x8)  (* 1 x9)  (* 1 x10)  (* 1 x11)  (* 1 x12)  (* 1 x13)  (* 1 x14) ) 3192)  (<= (+  (* 7 x1)  (* 5 x2)  (* 4 x3)  (* 3 x4)  (* 2 x5)  (* 2 x6)  (* 2 x7)  (* 1 x8)  (* 1 x9)  (* 1 x10)  (* 1 x11)  (* 1 x12)  (* 1 x13)  (* 1 x14) ) 3320)  (<= (+  (* 7 x1)  (* 5 x2)  (* 5 x3)  (* 3 x4)  (* 2 x5)  (* 2 x6)  (* 2 x7)  (* 1 x8)  (* 1 x9)  (* 1 x10)  (* 1 x11)  (* 1 x12)  (* 1 x13)  (* 1 x14) ) 3390)  (<= (+  (* 7 x1)  (* 6 x2)  (* 5 x3)  (* 3 x4)  (* 2 x5)  (* 2 x6)  (* 2 x7)  (* 1 x8)  (* 1 x9)  (* 1 x10)  (* 1 x11)  (* 1 x12)  (* 1 x13)  (* 1 x14) ) 3724)  (<= (+  (* 8 x1)  (* 6 x2)  (* 5 x3)  (* 3 x4)  (* 2 x5)  (* 2 x6)  (* 2 x7)  (* 1 x8)  (* 1 x9)  (* 1 x10)  (* 1 x11)  (* 1 x12)  (* 1 x13)  (* 1 x14) ) 4012)  (<= (+  (* 8 x1)  (* 6 x2)  (* 5 x3)  (* 3 x4)  (* 2 x5)  (* 2 x6)  (* 2 x7)  (* 2 x8)  (* 1 x9)  (* 1 x10)  (* 1 x11)  (* 1 x12)  (* 1 x13)  (* 1 x14) ) 4068)  (<= (+  (* 8 x1)  (* 7 x2)  (* 5 x3)  (* 3 x4)  (* 2 x5)  (* 2 x6)  (* 2 x7)  (* 2 x8)  (* 1 x9)  (* 1 x10)  (* 1 x11)  (* 1 x12)  (* 1 x13)  (* 1 x14) ) 4083)  (<= (+  (* 8 x1)  (* 7 x2)  (* 5 x3)  (* 3 x4)  (* 2 x5)  (* 2 x6)  (* 2 x7)  (* 2 x8)  (* 2 x9)  (* 1 x10)  (* 1 x11)  (* 1 x12)  (* 1 x13)  (* 1 x14) ) 4150)  (<= (+  (* 8 x1)  (* 7 x2)  (* 6 x3)  (* 3 x4)  (* 2 x5)  (* 2 x6)  (* 2 x7)  (* 2 x8)  (* 2 x9)  (* 1 x10)  (* 1 x11)  (* 1 x12)  (* 1 x13)  (* 1 x14) ) 4256)  (<= (+  (* 9 x1)  (* 7 x2)  (* 6 x3)  (* 3 x4)  (* 2 x5)  (* 2 x6)  (* 2 x7)  (* 2 x8)  (* 2 x9)  (* 1 x10)  (* 1 x11)  (* 1 x12)  (* 1 x13)  (* 1 x14) ) 4284)  (<= (+  (* 9 x1)  (* 7 x2)  (* 6 x3)  (* 4 x4)  (* 2 x5)  (* 2 x6)  (* 2 x7)  (* 2 x8)  (* 2 x9)  (* 1 x10)  (* 1 x11)  (* 1 x12)  (* 1 x13)  (* 1 x14) ) 4534)  (<= (+  (* 9 x1)  (* 7 x2)  (* 6 x3)  (* 4 x4)  (* 2 x5)  (* 2 x6)  (* 2 x7)  (* 2 x8)  (* 2 x9)  (* 2 x10)  (* 1 x11)  (* 1 x12)  (* 1 x13)  (* 1 x14) ) 4572)  (<= (+  (* 9 x1)  (* 7 x2)  (* 6 x3)  (* 4 x4)  (* 2 x5)  (* 2 x6)  (* 2 x7)  (* 2 x8)  (* 2 x9)  (* 2 x10)  (* 2 x11)  (* 1 x12)  (* 1 x13)  (* 1 x14) ) 4746)  (<= (+  (* 9 x1)  (* 8 x2)  (* 6 x3)  (* 4 x4)  (* 2 x5)  (* 2 x6)  (* 2 x7)  (* 2 x8)  (* 2 x9)  (* 2 x10)  (* 2 x11)  (* 1 x12)  (* 1 x13)  (* 1 x14) ) 4788)  (<= (+  (* 10 x1)  (* 8 x2)  (* 6 x3)  (* 4 x4)  (* 2 x5)  (* 2 x6)  (* 2 x7)  (* 2 x8)  (* 2 x9)  (* 2 x10)  (* 2 x11)  (* 2 x12)  (* 1 x13)  (* 1 x14) ) 4790)  (<= (+  (* 10 x1)  (* 8 x2)  (* 6 x3)  (* 4 x4)  (* 2 x5)  (* 2 x6)  (* 2 x7)  (* 2 x8)  (* 2 x9)  (* 2 x10)  (* 2 x11)  (* 2 x12)  (* 2 x13)  (* 1 x14) ) 4827) ) ( or  (<= (+  (* 1 x1)  (* 1 x2)  (* 1 x3)  (* 1 x4)  (* 1 x5)  (* 1 x6)  (* 1 x7)  (* 1 x8)  (* 1 x9)  (* 1 x10)  (* 1 x11)  (* 1 x12)  (* 1 x13)  (* 1 x14)  (* 1 x15) ) 532)  (<= (+  (* 2 x1)  (* 1 x2)  (* 1 x3)  (* 1 x4)  (* 1 x5)  (* 1 x6)  (* 1 x7)  (* 1 x8)  (* 1 x9)  (* 1 x10)  (* 1 x11)  (* 1 x12)  (* 1 x13)  (* 1 x14)  (* 1 x15) ) 678)  (<= (+  (* 2 x1)  (* 2 x2)  (* 1 x3)  (* 1 x4)  (* 1 x5)  (* 1 x6)  (* 1 x7)  (* 1 x8)  (* 1 x9)  (* 1 x10)  (* 1 x11)  (* 1 x12)  (* 1 x13)  (* 1 x14)  (* 1 x15) ) 830)  (<= (+  (* 2 x1)  (* 2 x2)  (* 2 x3)  (* 1 x4)  (* 1 x5)  (* 1 x6)  (* 1 x7)  (* 1 x8)  (* 1 x9)  (* 1 x10)  (* 1 x11)  (* 1 x12)  (* 1 x13)  (* 1 x14)  (* 1 x15) ) 1064)  (<= (+  (* 3 x1)  (* 2 x2)  (* 2 x3)  (* 1 x4)  (* 1 x5)  (* 1 x6)  (* 1 x7)  (* 1 x8)  (* 1 x9)  (* 1 x10)  (* 1 x11)  (* 1 x12)  (* 1 x13)  (* 1 x14)  (* 1 x15) ) 1356)  (<= (+  (* 3 x1)  (* 3 x2)  (* 2 x3)  (* 1 x4)  (* 1 x5)  (* 1 x6)  (* 1 x7)  (* 1 x8)  (* 1 x9)  (* 1 x10)  (* 1 x11)  (* 1 x12)  (* 1 x13)  (* 1 x14)  (* 1 x15) ) 1428)  (<= (+  (* 3 x1)  (* 3 x2)  (* 2 x3)  (* 2 x4)  (* 1 x5)  (* 1 x6)  (* 1 x7)  (* 1 x8)  (* 1 x9)  (* 1 x10)  (* 1 x11)  (* 1 x12)  (* 1 x13)  (* 1 x14)  (* 1 x15) ) 1596)  (<= (+  (* 4 x1)  (* 3 x2)  (* 2 x3)  (* 2 x4)  (* 1 x5)  (* 1 x6)  (* 1 x7)  (* 1 x8)  (* 1 x9)  (* 1 x10)  (* 1 x11)  (* 1 x12)  (* 1 x13)  (* 1 x14)  (* 1 x15) ) 1660)  (<= (+  (* 4 x1)  (* 3 x2)  (* 3 x3)  (* 2 x4)  (* 1 x5)  (* 1 x6)  (* 1 x7)  (* 1 x8)  (* 1 x9)  (* 1 x10)  (* 1 x11)  (* 1 x12)  (* 1 x13)  (* 1 x14)  (* 1 x15) ) 2034)  (<= (+  (* 4 x1)  (* 4 x2)  (* 3 x3)  (* 2 x4)  (* 1 x5)  (* 1 x6)  (* 1 x7)  (* 1 x8)  (* 1 x9)  (* 1 x10)  (* 1 x11)  (* 1 x12)  (* 1 x13)  (* 1 x14)  (* 1 x15) ) 2128)  (<= (+  (* 5 x1)  (* 4 x2)  (* 3 x3)  (* 2 x4)  (* 1 x5)  (* 1 x6)  (* 1 x7)  (* 1 x8)  (* 1 x9)  (* 1 x10)  (* 1 x11)  (* 1 x12)  (* 1 x13)  (* 1 x14)  (* 1 x15) ) 2453)  (<= (+  (* 5 x1)  (* 4 x2)  (* 3 x3)  (* 2 x4)  (* 2 x5)  (* 1 x6)  (* 1 x7)  (* 1 x8)  (* 1 x9)  (* 1 x10)  (* 1 x11)  (* 1 x12)  (* 1 x13)  (* 1 x14)  (* 1 x15) ) 2490)  (<= (+  (* 5 x1)  (* 4 x2)  (* 4 x3)  (* 2 x4)  (* 2 x5)  (* 1 x6)  (* 1 x7)  (* 1 x8)  (* 1 x9)  (* 1 x10)  (* 1 x11)  (* 1 x12)  (* 1 x13)  (* 1 x14)  (* 1 x15) ) 2660)  (<= (+  (* 6 x1)  (* 4 x2)  (* 4 x3)  (* 2 x4)  (* 2 x5)  (* 1 x6)  (* 1 x7)  (* 1 x8)  (* 1 x9)  (* 1 x10)  (* 1 x11)  (* 1 x12)  (* 1 x13)  (* 1 x14)  (* 1 x15) ) 2712)  (<= (+  (* 6 x1)  (* 5 x2)  (* 4 x3)  (* 2 x4)  (* 2 x5)  (* 1 x6)  (* 1 x7)  (* 1 x8)  (* 1 x9)  (* 1 x10)  (* 1 x11)  (* 1 x12)  (* 1 x13)  (* 1 x14)  (* 1 x15) ) 2757)  (<= (+  (* 6 x1)  (* 5 x2)  (* 4 x3)  (* 2 x4)  (* 2 x5)  (* 2 x6)  (* 1 x7)  (* 1 x8)  (* 1 x9)  (* 1 x10)  (* 1 x11)  (* 1 x12)  (* 1 x13)  (* 1 x14)  (* 1 x15) ) 2856)  (<= (+  (* 6 x1)  (* 5 x2)  (* 4 x3)  (* 3 x4)  (* 2 x5)  (* 2 x6)  (* 1 x7)  (* 1 x8)  (* 1 x9)  (* 1 x10)  (* 1 x11)  (* 1 x12)  (* 1 x13)  (* 1 x14)  (* 1 x15) ) 3180)  (<= (+  (* 6 x1)  (* 5 x2)  (* 4 x3)  (* 3 x4)  (* 2 x5)  (* 2 x6)  (* 2 x7)  (* 1 x8)  (* 1 x9)  (* 1 x10)  (* 1 x11)  (* 1 x12)  (* 1 x13)  (* 1 x14)  (* 1 x15) ) 3192)  (<= (+  (* 7 x1)  (* 5 x2)  (* 4 x3)  (* 3 x4)  (* 2 x5)  (* 2 x6)  (* 2 x7)  (* 1 x8)  (* 1 x9)  (* 1 x10)  (* 1 x11)  (* 1 x12)  (* 1 x13)  (* 1 x14)  (* 1 x15) ) 3320)  (<= (+  (* 7 x1)  (* 5 x2)  (* 5 x3)  (* 3 x4)  (* 2 x5)  (* 2 x6)  (* 2 x7)  (* 1 x8)  (* 1 x9)  (* 1 x10)  (* 1 x11)  (* 1 x12)  (* 1 x13)  (* 1 x14)  (* 1 x15) ) 3390)  (<= (+  (* 7 x1)  (* 6 x2)  (* 5 x3)  (* 3 x4)  (* 2 x5)  (* 2 x6)  (* 2 x7)  (* 1 x8)  (* 1 x9)  (* 1 x10)  (* 1 x11)  (* 1 x12)  (* 1 x13)  (* 1 x14)  (* 1 x15) ) 3724)  (<= (+  (* 8 x1)  (* 6 x2)  (* 5 x3)  (* 3 x4)  (* 2 x5)  (* 2 x6)  (* 2 x7)  (* 1 x8)  (* 1 x9)  (* 1 x10)  (* 1 x11)  (* 1 x12)  (* 1 x13)  (* 1 x14)  (* 1 x15) ) 4012)  (<= (+  (* 8 x1)  (* 6 x2)  (* 5 x3)  (* 3 x4)  (* 2 x5)  (* 2 x6)  (* 2 x7)  (* 2 x8)  (* 1 x9)  (* 1 x10)  (* 1 x11)  (* 1 x12)  (* 1 x13)  (* 1 x14)  (* 1 x15) ) 4068)  (<= (+  (* 8 x1)  (* 7 x2)  (* 5 x3)  (* 3 x4)  (* 2 x5)  (* 2 x6)  (* 2 x7)  (* 2 x8)  (* 1 x9)  (* 1 x10)  (* 1 x11)  (* 1 x12)  (* 1 x13)  (* 1 x14)  (* 1 x15) ) 4083)  (<= (+  (* 8 x1)  (* 7 x2)  (* 5 x3)  (* 3 x4)  (* 2 x5)  (* 2 x6)  (* 2 x7)  (* 2 x8)  (* 2 x9)  (* 1 x10)  (* 1 x11)  (* 1 x12)  (* 1 x13)  (* 1 x14)  (* 1 x15) ) 4150)  (<= (+  (* 8 x1)  (* 7 x2)  (* 6 x3)  (* 3 x4)  (* 2 x5)  (* 2 x6)  (* 2 x7)  (* 2 x8)  (* 2 x9)  (* 1 x10)  (* 1 x11)  (* 1 x12)  (* 1 x13)  (* 1 x14)  (* 1 x15) ) 4256)  (<= (+  (* 9 x1)  (* 7 x2)  (* 6 x3)  (* 3 x4)  (* 2 x5)  (* 2 x6)  (* 2 x7)  (* 2 x8)  (* 2 x9)  (* 1 x10)  (* 1 x11)  (* 1 x12)  (* 1 x13)  (* 1 x14)  (* 1 x15) ) 4284)  (<= (+  (* 9 x1)  (* 7 x2)  (* 6 x3)  (* 4 x4)  (* 2 x5)  (* 2 x6)  (* 2 x7)  (* 2 x8)  (* 2 x9)  (* 1 x10)  (* 1 x11)  (* 1 x12)  (* 1 x13)  (* 1 x14)  (* 1 x15) ) 4534)  (<= (+  (* 9 x1)  (* 7 x2)  (* 6 x3)  (* 4 x4)  (* 2 x5)  (* 2 x6)  (* 2 x7)  (* 2 x8)  (* 2 x9)  (* 2 x10)  (* 1 x11)  (* 1 x12)  (* 1 x13)  (* 1 x14)  (* 1 x15) ) 4572)  (<= (+  (* 9 x1)  (* 7 x2)  (* 6 x3)  (* 4 x4)  (* 2 x5)  (* 2 x6)  (* 2 x7)  (* 2 x8)  (* 2 x9)  (* 2 x10)  (* 2 x11)  (* 1 x12)  (* 1 x13)  (* 1 x14)  (* 1 x15) ) 4746)  (<= (+  (* 9 x1)  (* 8 x2)  (* 6 x3)  (* 4 x4)  (* 2 x5)  (* 2 x6)  (* 2 x7)  (* 2 x8)  (* 2 x9)  (* 2 x10)  (* 2 x11)  (* 1 x12)  (* 1 x13)  (* 1 x14)  (* 1 x15) ) 4788)  (<= (+  (* 10 x1)  (* 8 x2)  (* 6 x3)  (* 4 x4)  (* 2 x5)  (* 2 x6)  (* 2 x7)  (* 2 x8)  (* 2 x9)  (* 2 x10)  (* 2 x11)  (* 2 x12)  (* 1 x13)  (* 1 x14)  (* 1 x15) ) 4790)  (<= (+  (* 10 x1)  (* 8 x2)  (* 6 x3)  (* 4 x4)  (* 2 x5)  (* 2 x6)  (* 2 x7)  (* 2 x8)  (* 2 x9)  (* 2 x10)  (* 2 x11)  (* 2 x12)  (* 2 x13)  (* 1 x14)  (* 1 x15) ) 4827)  (<= (+  (* 10 x1)  (* 8 x2)  (* 6 x3)  (* 4 x4)  (* 2 x5)  (* 2 x6)  (* 2 x7)  (* 2 x8)  (* 2 x9)  (* 2 x10)  (* 2 x11)  (* 2 x12)  (* 2 x13)  (* 2 x14)  (* 1 x15) ) 4855) ) (>= x1 3) (>= x2 4) (>= x3 5) (>= x4 9) (>= x5 16) (>= x6 18) (>= x7 21) (>= x8 26) (>= x9 27) (>= x10 30) (>= x11 30) (>= x12 31) (>= x13 31) (>= x14 32) (>= x15 32) (<= x1 227) (<= x2 290) (<= x3 355) (<= x4 611) (<= x5 1050) (<= x6 1181) (<= x7 1362) (<= x8 1718) (<= x9 1749) (<= x10 1942) (<= x11 1958) (<= x12 2051) (<= x13 2051) (<= x14 2067) (<= x15 2079) (>= (+ (/ x1 532 ) (/ x2 678 ) (/ x3 830 ) (/ x4 1428 ) (/ x5 2453 ) (/ x6 2757 ) (/ x7 3180 ) (/ x8 4012 ) (/ x9 4083 ) (/ x10 4534 ) (/ x11 4572 ) (/ x12 4788 ) (/ x13 4790 ) (/ x14 4827 ) (/ x15 4855 ) ) (/ 85 100))))
(check-sat)
(exit)
